language ESSENCE' 1.0
$ Minion SolverNodes: 3
$ Minion SolverTotalTime: 0.039135
$ Minion SolverTimeOut: 0
$ Savile Row TotalTime: 0.197
letting M be [[3, 7, 5, 0], 
[0, 7, 5, -1], 
[0, 5, -1, -1], 
[5, -1, -1, -1]]
